1609
54 77 91 1 26 97 35 16 30 96 48 66 12 24 58 55 28 9 45 43 39 75 64 19 11 71 50 59 51 67 29 72 65 69 6 89 73 63 90 20 38 13 33 21 84 4 62 3 18 40 87 56 76 93 83 95 92 99 34 8 7 42 2 14 79 27 46 17 70 80 86 47 49 37 82 57 52 31 98 78 68 53 15 22 10 85 23 74 88 61 41 44 81 5 60 36 25 94 32 
